Problem:    
Rows:       260
Columns:    89 (72 integer, 72 binary)
Non-zeros:  936
Status:     INTEGER OPTIMAL
Objective:  value = 25.999453 (MINimum)

   No.   Row name        Activity     Lower bound   Upper bound
------ ------------    ------------- ------------- -------------
     1 r.5                      1050             0               
     2 r.6                   -1008.6       -1014.5               
     3 r.7                   25.9995             0               
     4 r.8                   15.3984      -1015.49               
     5 r.9                   25.9995             0               
     6 r.10                  21.0871      -1014.64               
     7 r.11                     1050             0               
     8 r.12                 -1014.74      -1015.38               
     9 r.13                     1050             0               
    10 r.14                  -1018.1      -1023.18               
    11 r.15                  25.9995             0               
    12 r.16                  15.3984      -1022.31               
    13 r.17                     1050             0               
    14 r.18                 -1018.93      -1022.75               
    15 r.19                  25.9995             0               
    16 r.20                   0.6352       -1021.5               
    17 r.21                  25.9995             0               
    18 r.22                  19.4769      -1019.44               
    19 r.23                     1050             0               
    20 r.24                 -1004.52      -1019.66               
    21 r.25                     1050             0               
    22 r.26                 -1023.36      -1023.36               
    23 r.27                  25.9995             0               
    24 r.28                   0.6352      -1022.52               
    25 r.29                     1050             0               
    26 r.30                 -998.001       -1013.4               
    27 r.31                  25.9995             0               
    28 r.32                  25.9995      -1017.87               
    29 r.33                  25.9995             0               
    30 r.34                  25.9995      -1009.11               
    31 r.35                     1050             0               
    32 r.36                 -998.001      -1017.48               
    33 r.37                        1             1             = 
    34 r.38                        1             1             = 
    35 r.39                        1             1             = 
    36 r.40                        1             1             = 
    37 r.41                        1             1             = 
    38 r.42                        1             1             = 
    39 r.43                        1             1             = 
    40 r.44                        1             1             = 
    41 r.45                     1025             2               
    42 r.46                    -1025         -1025               
    43 r.47                  2053.69      -1014.64               
    44 r.48                     1025             2               
    45 r.49                    -1025         -1025               
    46 r.50                  2041.86      -1015.38               
    47 r.51                        2             2               
    48 r.52                       -2         -1025               
    49 r.53                 -9.50058      -1023.18               
    50 r.54                     1024             2               
    51 r.55                    -1024         -1025               
    52 r.56                     2048      -1022.31               
    53 r.57                        2             2               
    54 r.58                       -2         -1025               
    55 r.59                 -10.3251      -1022.75               
    56 r.60                     1024             2               
    57 r.61                    -1024         -1025               
    58 r.62                  2033.24       -1021.5               
    59 r.63                     1025             2               
    60 r.64                    -1025         -1025               
    61 r.65                  2052.08      -1019.44               
    62 r.66                     1025             2               
    63 r.67                    -1025         -1025               
    64 r.68                  2052.08      -1019.66               
    65 r.69                  5.26258             0               
    66 r.70                  14.7632             0               
    67 r.71                  5.26258             0               
    68 r.72                  14.7632             0               
    69 r.73                  -1013.4       -1013.4               
    70 r.74                  10.6011      -1017.87               
    71 r.75                  -1013.4       -1013.4               
    72 r.76                  10.6011      -1017.87               
    73 r.77                  10.6011      -1009.11               
    74 r.78                  -1013.4      -1017.48               
    75 r.79                  10.6011      -1009.11               
    76 r.80                  -1013.4      -1017.48               
    77 r.81                     1025             2               
    78 r.82                    -1025         -1025               
    79 r.83                     2048       9.50058               
    80 r.84                     1025             2               
    81 r.85                    -1025         -1025               
    82 r.86                  2048.26       8.50631               
    83 r.87                     1025             2               
    84 r.88                    -1025         -1025               
    85 r.89                   2038.5      -1023.18               
    86 r.90                     1025             2               
    87 r.91                    -1025         -1025               
    88 r.92                  2048.26      -1022.31               
    89 r.93                     1025             2               
    90 r.94                    -1025         -1025               
    91 r.95                  2037.67      -1022.75               
    92 r.96                     1025             2               
    93 r.97                    -1025         -1025               
    94 r.98                   2033.5       -1021.5               
    95 r.99                     1024             2               
    96 r.100                   -1024         -1025               
    97 r.101                 2052.08      -1019.44               
    98 r.102                       2             2               
    99 r.103                      -2         -1025               
   100 r.104                -1019.66      -1019.66               
   101 r.105                 20.4519             0               
   102 r.106                       0             0               
   103 r.107                 20.4519             0               
   104 r.108                       0             0               
   105 r.109                 -1013.4       -1013.4               
   106 r.110                 10.6011      -1017.87               
   107 r.111                -1013.14       -1013.4               
   108 r.112                 10.8624      -1017.87               
   109 r.113                    1024             2               
   110 r.114                   -1024         -1025               
   111 r.115                  2058.6      -1009.11               
   112 r.116                       2             2               
   113 r.117                      -2         -1025               
   114 r.118                -1013.14      -1017.48               
   115 r.119                       2             2               
   116 r.120                      -2         -1025               
   117 r.121                 9.50058       9.50058               
   118 r.122                    1024             2               
   119 r.123                   -1024         -1025               
   120 r.124                    2048       8.50631               
   121 r.125                    1025             2               
   122 r.126                   -1025         -1025               
   123 r.127                 2063.19        9.3647               
   124 r.128                    1025             2               
   125 r.129                   -1025         -1025               
   126 r.130                 2041.86       8.62128               
   127 r.131                       2             2               
   128 r.132                      -2         -1025               
   129 r.133               -0.824553      -1022.75               
   130 r.134                    1024             2               
   131 r.135                   -1024         -1025               
   132 r.136                 2033.24       -1021.5               
   133 r.137                    1025             2               
   134 r.138                   -1025         -1025               
   135 r.139                 2061.58      -1019.44               
   136 r.140                    1025             2               
   137 r.141                   -1025         -1025               
   138 r.142                 2052.08      -1019.66               
   139 r.143                 4.43802             0               
   140 r.144                 14.7632             0               
   141 r.145                 4.43802             0               
   142 r.146                 14.7632             0               
   143 r.147                 -1003.9       -1013.4               
   144 r.148                 20.1017      -1017.87               
   145 r.149                 -1013.4       -1013.4               
   146 r.150                 10.6011      -1017.87               
   147 r.151                 20.1017      -1009.11               
   148 r.152                 -1003.9      -1017.48               
   149 r.153                 10.6011      -1009.11               
   150 r.154                 -1013.4      -1017.48               
   151 r.155                       2             2               
   152 r.156                      -2         -1025               
   153 r.157                 10.3251       9.50058               
   154 r.158                    1024             2               
   155 r.159                   -1024         -1025               
   156 r.160                 2062.76       8.50631               
   157 r.161                    1025             2               
   158 r.162                   -1025         -1025               
   159 r.163                 2064.01        9.3647               
   160 r.164                    1025             2               
   161 r.165                   -1025         -1025               
   162 r.166                 2056.62       8.62128               
   163 r.167                       2             2               
   164 r.168                      -2         -1025               
   165 r.169                0.824553      0.824553               
   166 r.170                    1024             2               
   167 r.171                   -1024         -1025               
   168 r.172                 2062.76       1.68589               
   169 r.173                    1025             2               
   170 r.174                   -1025         -1025               
   171 r.175                  2062.4      -1019.44               
   172 r.176                    1025             2               
   173 r.177                   -1025         -1025               
   174 r.178                 2066.84      -1019.66               
   175 r.179                 3.18949             0               
   176 r.180                       0             0               
   177 r.181                 3.18949             0               
   178 r.182                       0             0               
   179 r.183                -1003.07       -1013.4               
   180 r.184                 20.9262      -1017.87               
   181 r.185                -998.636       -1013.4               
   182 r.186                 25.3643      -1017.87               
   183 r.187                    1025             2               
   184 r.188                   -1025         -1025               
   185 r.189                 2068.93      -1009.11               
   186 r.190                    1025             2               
   187 r.191                   -1025         -1025               
   188 r.192                 2073.36      -1017.48               
   189 r.193                    1025             2               
   190 r.194                   -1025         -1025               
   191 r.195                 2043.92       9.50058               
   192 r.196                    1025             2               
   193 r.197                   -1025         -1025               
   194 r.198                 2043.92       8.50631               
   195 r.199                    1024             2               
   196 r.200                   -1024         -1025               
   197 r.201                 2049.61        9.3647               
   198 r.202                       2             2               
   199 r.203                      -2         -1025               
   200 r.204                 1013.78       8.62128               
   201 r.205                    1025             2               
   202 r.206                   -1025         -1025               
   203 r.207                 2034.42      0.824553               
   204 r.208                    1025             2               
   205 r.209                   -1025         -1025               
   206 r.210                 2043.92       1.68589               
   207 r.211                    1025             2               
   208 r.212                   -1025         -1025               
   209 r.213                  2033.6       1.24853               
   210 r.214                    1025             2               
   211 r.215                   -1025         -1025               
   212 r.216                 2029.16       2.50349               
   213 r.217                 18.8417             0               
   214 r.218                 14.5018             0               
   215 r.219                 18.8417             0               
   216 r.220                 14.5018             0               
   217 r.221                    1025             2               
   218 r.222                   -1025         -1025               
   219 r.223                 2054.52       -1013.4               
   220 r.224                    1025             2               
   221 r.225                   -1025         -1025               
   222 r.226                 2054.52      -1017.87               
   223 r.227                  6.5226      -1009.11               
   224 r.228                -1017.48      -1017.48               
   225 r.229                  6.5226      -1009.11               
   226 r.230                -1017.48      -1017.48               
   227 r.231                -998.636       -1013.4               
   228 r.232                 25.3643      -1017.87               
   229 r.233                -998.636       -1013.4               
   230 r.234                 25.3643      -1017.87               
   231 r.235                    1025             2               
   232 r.236                   -1025         -1025               
   233 r.237                 2041.48         4.562               
   234 r.238                    1025             2               
   235 r.239                   -1025         -1025               
   236 r.240                 2041.48       4.33983               
   237 r.241                    1025             2               
   238 r.242                   -1025         -1025               
   239 r.243                    2048      -1009.11               
   240 r.244                    1025             2               
   241 r.245                   -1025         -1025               
   242 r.246                    2048      -1017.48               
   243 r.247                    1024             2               
   244 r.248                   -1024         -1025               
   245 r.249                 2043.09        9.3647               
   246 r.250                       2             2               
   247 r.251                      -2         -1025               
   248 r.252                 1007.26       8.62128               
   249 r.253                    1025             2               
   250 r.254                   -1025         -1025               
   251 r.255                 2027.07       1.24853               
   252 r.256                    1025             2               
   253 r.257                   -1025         -1025               
   254 r.258                 2022.64       2.50349               
   255 r.259                    1025             2               
   256 r.260                   -1025         -1025               
   257 r.261                    2048       10.6011               
   258 r.262                    1025             2               
   259 r.263                   -1025         -1025               
   260 r.264                    2048       6.13024               

   No. Column name       Activity     Lower bound   Upper bound
------ ------------    ------------- ------------- -------------
     1 tt                    25.9995             0               
     2 s_1_1        *              1             0             1 
     3 t_1_1                 10.6011             0               
     4 s_1_7        *              1             0             1 
     5 s_2_1        *              0             0             1 
     6 t_2_1                 10.6011             0               
     7 s_2_7        *              0             0             1 
     8 s_1_2        *              0             0             1 
     9 t_1_2                 10.6011             0               
    10 s_2_2        *              1             0             1 
    11 t_2_2                 10.8624             0               
    12 s_1_3        *              1             0             1 
    13 t_1_3                 20.1017             0               
    14 s_2_3        *              0             0             1 
    15 t_2_3                 10.6011             0               
    16 s_1_4        *              1             0             1 
    17 t_1_4                 20.9262             0               
    18 s_2_4        *              0             0             1 
    19 t_2_4                 25.3643             0               
    20 s_1_5        *              0             0             1 
    21 t_1_5                  6.5226             0               
    22 s_1_8        *              0             0             1 
    23 s_2_5        *              1             0             1 
    24 t_2_5                  6.5226             0               
    25 s_2_8        *              1             0             1 
    26 s_1_6        *              1             0             1 
    27 t_1_6                 25.3643             0               
    28 s_2_6        *              0             0             1 
    29 t_2_6                 25.3643             0               
    30 t_1_7                       0             0               
    31 t_2_7                       0             0               
    32 t_1_8                       0             0               
    33 t_2_8                       0             0               
    34 r_1_1_2      *              1             0             1 
    35 u_1_1_2      *              0             0             1 
    36 r_2_1_2      *              1             0             1 
    37 u_2_1_2      *              0             0             1 
    38 r_1_1_3      *              0             0             1 
    39 u_1_1_3      *              0             0             1 
    40 r_2_1_3      *              1             0             1 
    41 u_2_1_3      *              0             0             1 
    42 r_1_1_4      *              0             0             1 
    43 u_1_1_4      *              0             0             1 
    44 r_2_1_4      *              1             0             1 
    45 u_2_1_4      *              0             0             1 
    46 r_1_1_5      *              1             0             1 
    47 u_1_1_5      *              0             0             1 
    48 r_2_1_5      *              1             0             1 
    49 u_2_1_5      *              0             0             1 
    50 r_1_2_3      *              1             0             1 
    51 u_1_2_3      *              0             0             1 
    52 r_2_2_3      *              1             0             1 
    53 u_2_2_3      *              0             0             1 
    54 r_1_2_4      *              1             0             1 
    55 u_1_2_4      *              0             0             1 
    56 r_2_2_4      *              1             0             1 
    57 u_2_2_4      *              0             0             1 
    58 r_1_2_5      *              1             0             1 
    59 u_1_2_5      *              0             0             1 
    60 r_2_2_5      *              0             0             1 
    61 u_2_2_5      *              1             0             1 
    62 r_1_2_8      *              1             0             1 
    63 u_1_2_8      *              0             0             1 
    64 r_2_2_8      *              0             0             1 
    65 u_2_2_8      *              1             0             1 
    66 r_1_3_4      *              0             0             1 
    67 u_1_3_4      *              0             0             1 
    68 r_2_3_4      *              1             0             1 
    69 u_2_3_4      *              0             0             1 
    70 r_1_3_5      *              1             0             1 
    71 u_1_3_5      *              0             0             1 
    72 r_2_3_5      *              1             0             1 
    73 u_2_3_5      *              0             0             1 
    74 r_1_4_5      *              1             0             1 
    75 u_1_4_5      *              0             0             1 
    76 r_2_4_5      *              1             0             1 
    77 u_2_4_5      *              0             0             1 
    78 r_1_4_8      *              1             0             1 
    79 u_1_4_8      *              0             0             1 
    80 r_2_4_8      *              1             0             1 
    81 u_2_4_8      *              0             0             1 
    82 r_1_5_7      *              1             0             1 
    83 u_1_5_7      *              0             0             1 
    84 r_2_5_7      *              1             0             1 
    85 u_2_5_7      *              0             0             1 
    86 r_1_7_8      *              1             0             1 
    87 u_1_7_8      *              0             0             1 
    88 r_2_7_8      *              1             0             1 
    89 u_2_7_8      *              0             0             1 

Integer feasibility conditions:

KKT.PE: max.abs.err = 4.55e-13 on row 82
        max.rel.err = 1.11e-16 on row 194
        High quality

KKT.PB: max.abs.err = 1.89e-15 on row 165
        max.rel.err = 1.03e-15 on row 165
        High quality

End of output
